22	3

10	10	10	

0	0	0	0	3	2	3	4	
3	3	5	2	2	5	6	
2	5	4	3	3	5	6	7	
6	5	2	2	2	5	8	
1	4	1	4	2	9	10	
3	5	5	4	2	10	12	
2	3	5	2	2	11	12	
1	2	4	4	2	10	12	
2	3	2	2	2	13	14	
2	3	2	4	1	13	
1	3	3	2	1	13	
7	4	1	4	3	13	15	16	
4	1	4	4	2	17	18	
4	2	2	2	1	18	
2	5	5	4	1	18	
1	1	5	4	1	19	
7	4	5	4	1	21	
5	3	2	3	1	20	
1	5	3	3	1	21	
8	2	4	6	1	22	
3	1	6	2	1	22	
0	0	0	0	0	
